29
bromazepam, PubChem CID 2441 3D conformer (MMFF94), neutral
Br    -0.756800    -4.456900     0.821000
O     -2.440000     3.493800    -0.579600
N     -2.419800     1.208400    -0.719900
N      0.085800     1.949600     0.794200
N      1.912400    -0.501600    -0.889800
C     -0.706400    -0.323000     0.240200
C     -1.944200    -0.073900    -0.375400
C      0.327600     0.743500     0.407300
C     -0.369800    -1.634900     0.612800
C     -1.270400     2.318100     1.137300
C      1.745600     0.423300     0.074300
C     -2.774600    -1.156400    -0.702800
C     -2.067400     2.406200    -0.136900
C     -1.228300    -2.695200     0.324800
C     -2.421900    -2.458400    -0.348400
C      2.768200     1.062300     0.743300
C      4.071200     0.724600     0.394600
C      3.192700    -0.804000    -1.201700
C      4.296100    -0.225400    -0.595500
H     -3.147600     1.247500    -1.429100
H      0.569900    -1.836300     1.123100
H     -1.262800     3.306000     1.610800
H     -1.736100     1.632400     1.854500
H     -3.723600    -0.991800    -1.208900
H     -3.096100    -3.274100    -0.596300
H      2.592700     1.796500     1.521700
H      4.910000     1.199100     0.895000
H      3.314000    -1.551000    -1.979300
H      5.303300    -0.504600    -0.883000
