40
chlorpromazine, PubChem CID 2726 3D conformer (MMFF94), neutral
Cl    -5.053200    -1.397500    -0.954800
S     -0.472100     2.168100     1.474300
N     -0.057300    -0.075000    -0.637500
N      2.430700    -2.265900     0.609100
C      0.261000    -1.354100    -1.285100
C      0.135000    -2.509000    -0.292200
C      1.018500    -2.378900     0.952400
C     -1.393200     0.123600    -0.205900
C      0.978100     0.890100    -0.554200
C     -1.711900     1.126400     0.731300
C      0.894200     1.968900     0.348000
C     -2.465300    -0.641300    -0.715300
C      2.116300     0.839600    -1.388400
C     -3.039600     1.324400     1.150100
C      1.920000     2.928200     0.420600
C      2.893900    -3.475500    -0.073500
C      3.235000    -2.020100     1.807400
C     -3.783700    -0.437000    -0.299300
C      3.130600     1.798300    -1.315800
C     -4.070800     0.544800     0.636600
C      3.033800     2.842100    -0.408000
H     -0.374900    -1.519200    -2.162800
H      1.268400    -1.431500    -1.692700
H      0.333100    -3.451600    -0.816000
H     -0.897700    -2.613900     0.058100
H      0.841600    -3.244900     1.604500
H      0.700000    -1.498100     1.523400
H     -2.302400    -1.408500    -1.467400
H      2.244700     0.099100    -2.170500
H     -3.284800     2.091000     1.882500
H      1.861000     3.755500     1.125000
H      3.976800    -3.425700    -0.240000
H      2.686700    -4.384800     0.502500
H      2.456400    -3.578700    -1.070800
H      2.917900    -1.093800     2.299700
H      4.289800    -1.886500     1.542900
H      3.160500    -2.839800     2.531100
H      3.987400     1.732900    -1.980200
H     -5.089100     0.718600     0.973500
H      3.818300     3.590100    -0.348300
