40
fluoxetine, PubChem CID 3386 3D conformer (MMFF94), neutral
F     -5.248900    -0.752100    -0.560400
F     -4.889000    -0.232600     1.514400
F     -5.262600     1.334000     0.053200
O      0.922800     0.559400    -0.822500
N      4.015000     3.402000    -0.020800
C      1.838400     0.258200     0.232500
C      3.092100     1.133800     0.073900
C      2.119500    -1.225900     0.195800
C      2.788800     2.630500     0.150100
C      2.093000    -1.891200    -1.019000
C      2.397700    -1.892800     1.377600
C     -0.391200     0.462700    -0.570300
C      2.351900    -3.261500    -1.052900
C      2.656800    -3.263000     1.343800
C     -1.197900    -0.423400    -1.303400
C     -0.989400     1.245400     0.431100
C     -3.143400     0.260200    -0.044800
C      2.633800    -3.947300     0.128500
C      3.737200     4.830700     0.008800
C     -2.564500    -0.524000    -1.042500
C     -2.356000     1.144800     0.692100
C     -4.604100     0.152300     0.235000
H      1.390300     0.499300     1.205900
H      3.826500     0.865500     0.844700
H      3.558100     0.917700    -0.897300
H      2.066200     2.900800    -0.629100
H      2.336000     2.856400     1.122800
H      1.900000    -1.379200    -1.956900
H      2.419800    -1.368500     2.328600
H      4.449600     3.162100    -0.911600
H      2.339400    -3.793500    -1.999700
H      2.877200    -3.797000     2.263500
H     -0.759200    -1.036500    -2.086500
H     -0.396900     1.953700     1.004900
H      2.837000    -5.013900     0.101900
H      4.672900     5.386200    -0.108800
H      3.296000     5.129400     0.965300
H      3.065900     5.127400    -0.803800
H     -3.161400    -1.218100    -1.627600
H     -2.798800     1.762400     1.469000
